(set-logic HORN)
(declare-fun inv ((_ BitVec 64) (_ BitVec 64) (_ BitVec 64) ) Bool)
(assert (forall ((x (_ BitVec 64)) (y (_ BitVec 64)) (z (_ BitVec 64))) 
       (=> ( and ( = x (_ bv0 64) ) ( = y (_ bv0 64) ) ( = z (_ bv0 64) ) ) (inv x y z))))
(assert (forall ((x (_ BitVec 64)) (y (_ BitVec 64)) (z (_ BitVec 64)) (x! (_ BitVec 64)) (y! (_ BitVec 64)) (z! (_ BitVec 64))) 
       (=> (and (inv x y z) ( and ( = x! ( bvadd x (_ bv1 64) ) ) ( = y! ( bvadd y (_ bv2 64) ) ) ( = z! ( bvadd z (_ bv3 64) ) ) )) (inv x! y! z!))))
(assert (forall ((x (_ BitVec 64)) (y (_ BitVec 64)) (z (_ BitVec 64))) 
       (=> (inv x y z) ( and ( bvsge x (_ bv0 64) ) ( bvsge y (_ bv0 64) ) ( bvsge z (_ bv0 64) ) ))))
(check-sat)
